problems/csplib-prob006/GolombRuler-models/noch/O0/minion/model_1-05-solution000001.solution
language Essence 1.3

letting Ticks be {0, 3, 4, 9, 11}
