problems/csplib-prob006/GolombRuler-models/noch/O2/minion/model_1-05-solution000001.eprime-solution
language ESSENCE' 1.0

letting Ticks_Occurrence be
        [true, false, false, true, true, false, false, false, false, true, false, true, false, false, false, false,
         false, false, false, false, false, false, false, false, false, false, false, false, false, false, false, false,
         false;
             int(0..32)]
letting aux1 be 11
